pr8_2
0 127 45 134 145 138 28 95 13 43 21 27 66 118 108 115 125 14 74 148 54 124 126 139 144 8 82 113 73 50 38 96 61 140 51 29 130 20 64 77 59 128 2 16 71 119 18 49 80 76 149 48 97 46 112 26 41 129 57 100 91 94 99 65 63 105 88 69 143 117 19 110 72 75 84 122 11 92 81 90 6 1 141 37 67 93 131 42 10 70 137 24 55 40 15 68 30 39 33 107 106 101 12 89 32 85 62 34 78 58 79 111 102 132 120 22 2 83 25 103 135 116 104 86 60 53 7 35 36 136 142 121 87 146 98 44 52 0 114 109 47 133 56 123 23 9 31 17 147 0